(set-logic ALL)
(declare-const k Int)
(declare-fun s () (_ BitVec k))
(declare-fun t () (_ BitVec k))
(assert (not (distinct (bvurem s (bvshl (_ bv1 k) (bvand t (_ bv1 k)))) (bvand s (bvand t (_ bv1 k))))))
(check-sat)
